100
1000
200
200
200
199
199
199
199
198
198
198
197
196
196
196
196
195
195
195
195
194
193
193
192
192
191
191
191
190
190
189
188
188
186
186
185
185
183
183
181
181
180
180
179
179
179
178
177
177
177
176
176
175
174
174
174
173
172
172
170
170
169
169
168
168
168
168
167
167
167
166
166
166
164
163
162
162
161
161
160
159
159
159
159
158
158
157
157
156
155
155
154
153
153
152
152
152
152
151
150
150
